NAME          ClpDefau  FREE
ROWS
 N  OBJROW
 L  ZMUNI1_PCT
 L  ZMUNI2_PCT
 L  ZMUNI3_PCT
 L  ZMUNI4_PCT
 L  ZMUNI5_PCT
 L  ZMUNI6_PCT
 L  ZMUNI7_PCT
 L  ZMUNI8_PCT
 L  ZMUNI9_PCT
COLUMNS
    QMUNI1 OBJROW 1.          
    QMUNI1 ZMUNI1_PCT 29379.0817  
    QMUNI1 ZMUNI2_PCT 1863.2889   
    QMUNI1 ZMUNI3_PCT 4275.1312   
    QMUNI1 ZMUNI4_PCT 3217.8879   
    QMUNI1 ZMUNI5_PCT 79.3457     
    QMUNI1 ZMUNI6_PCT 254.631     
    QMUNI1 ZMUNI7_PCT 1897.0489   
    QMUNI1 ZMUNI8_PCT 1510.0479   
    QMUNI1 ZMUNI9_PCT 683.5937    
    QMUNI2 OBJROW 1.          
    QMUNI2 ZMUNI1_PCT 1880.455    
    QMUNI2 ZMUNI2_PCT 35140.419   
    QMUNI2 ZMUNI3_PCT 2674.2935   
    QMUNI2 ZMUNI4_PCT 2872.0856   
    QMUNI2 ZMUNI5_PCT 557.1365    
    QMUNI2 ZMUNI6_PCT 572.9675    
    QMUNI2 ZMUNI7_PCT 1331.7108   
    QMUNI2 ZMUNI8_PCT 1456.4514   
    QMUNI2 ZMUNI9_PCT 1316.0705   
    QMUNI3 OBJROW 1.          
    QMUNI3 ZMUNI1_PCT 4242.897    
    QMUNI3 ZMUNI2_PCT 2660.7513   
    QMUNI3 ZMUNI3_PCT 30925.1785  
    QMUNI3 ZMUNI4_PCT 5271.3394   
    QMUNI3 ZMUNI5_PCT 554.2755    
    QMUNI3 ZMUNI6_PCT 611.1145    
    QMUNI3 ZMUNI7_PCT 1733.7799   
    QMUNI3 ZMUNI8_PCT 1502.2278   
    QMUNI3 ZMUNI9_PCT 674.8199    
    QMUNI4 OBJROW 1.          
    QMUNI4 ZMUNI1_PCT 3498.6496   
    QMUNI4 ZMUNI2_PCT 3240.7761   
    QMUNI4 ZMUNI3_PCT 5671.1197   
    QMUNI4 ZMUNI4_PCT 112252.8076 
    QMUNI4 ZMUNI5_PCT 455.4749    
    QMUNI4 ZMUNI6_PCT 573.5397    
    QMUNI4 ZMUNI7_PCT 1964.569    
    QMUNI4 ZMUNI8_PCT 1851.2726   
    QMUNI4 ZMUNI9_PCT 1318.7408   
    QMUNI5 OBJROW 1.          
    QMUNI5 ZMUNI1_PCT 104.1412    
    QMUNI5 ZMUNI2_PCT  -105.0949  
    QMUNI5 ZMUNI3_PCT 35.0952     
    QMUNI5 ZMUNI4_PCT 8.7738000001
    QMUNI5 ZMUNI5_PCT 36891.1743  
    QMUNI5 ZMUNI6_PCT 2815.0558   
    QMUNI5 ZMUNI7_PCT 66.3757     
    QMUNI5 ZMUNI8_PCT  -158.5007  
    QMUNI5 ZMUNI9_PCT  -496.6736  
    QMUNI6 OBJROW 1.          
    QMUNI6 ZMUNI1_PCT 300.2166    
    QMUNI6 ZMUNI2_PCT 57.9834     
    QMUNI6 ZMUNI3_PCT 203.1326    
    QMUNI6 ZMUNI4_PCT 131.2256    
    QMUNI6 ZMUNI5_PCT 3113.3652   
    QMUNI6 ZMUNI6_PCT 33541.6794  
    QMUNI6 ZMUNI7_PCT 617.5994    
    QMUNI6 ZMUNI8_PCT 255.7755    
    QMUNI6 ZMUNI9_PCT 1.5259000001
    QMUNI7 OBJROW 1.          
    QMUNI7 ZMUNI1_PCT 1490.7836   
    QMUNI7 ZMUNI2_PCT 860.2142    
    QMUNI7 ZMUNI3_PCT 1301.7654   
    QMUNI7 ZMUNI4_PCT 1008.7967   
    QMUNI7 ZMUNI5_PCT 690.2695    
    QMUNI7 ZMUNI6_PCT 839.2334    
    QMUNI7 ZMUNI7_PCT 33086.7767  
    QMUNI7 ZMUNI8_PCT 2648.5443   
    QMUNI7 ZMUNI9_PCT 856.3995    
    QMUNI8 OBJROW 1.          
    QMUNI8 ZMUNI1_PCT 1277.9235   
    QMUNI8 ZMUNI2_PCT 1056.8619   
    QMUNI8 ZMUNI3_PCT 1285.7437   
    QMUNI8 ZMUNI4_PCT 1046.7529   
    QMUNI8 ZMUNI5_PCT 507.3547    
    QMUNI8 ZMUNI6_PCT 557.7087    
    QMUNI8 ZMUNI7_PCT 2716.8273   
    QMUNI8 ZMUNI8_PCT 30119.3237  
    QMUNI8 ZMUNI9_PCT 1282.1197   
    QMUNI9 OBJROW 1.          
    QMUNI9 ZMUNI1_PCT 638.3895    
    QMUNI9 ZMUNI2_PCT 882.1487    
    QMUNI9 ZMUNI3_PCT 704.956     
    QMUNI9 ZMUNI4_PCT 620.079     
    QMUNI9 ZMUNI5_PCT 519.1803    
    QMUNI9 ZMUNI6_PCT 507.5455    
    QMUNI9 ZMUNI7_PCT 1085.2813   
    QMUNI9 ZMUNI8_PCT 1514.4348   
    QMUNI9 ZMUNI9_PCT 29449.8443  
RHS
    RHS ZMUNI1_PCT  -1.0049032 
    RHS ZMUNI2_PCT -0.039162307
    RHS ZMUNI3_PCT  -0.28142395
    RHS ZMUNI4_PCT 4.2340721636
    RHS ZMUNI5_PCT 0.4355620752
    RHS ZMUNI6_PCT  -0.55514013
    RHS ZMUNI7_PCT 0.8548801614
    RHS ZMUNI8_PCT 0.7517436105
    RHS ZMUNI9_PCT 1.6576205261
BOUNDS
 LO BOUND QMUNI1 -0.00074746 
 UP BOUND QMUNI1      1.1e+10
 LO BOUND QMUNI2 -0.000505431
 UP BOUND QMUNI2      1.1e+10
 LO BOUND QMUNI3 -0.000581249
 UP BOUND QMUNI3      1.1e+10
 LO BOUND QMUNI4 -0.000178113
 UP BOUND QMUNI4      1.1e+10
 LO BOUND QMUNI5 -0.000350023
 UP BOUND QMUNI5      1.1e+10
 LO BOUND QMUNI6 -0.000528688
 UP BOUND QMUNI6      1.1e+10
 LO BOUND QMUNI7 -0.00017544 
 UP BOUND QMUNI7      1.1e+10
 LO BOUND QMUNI8 -0.000287027
 UP BOUND QMUNI8      1.1e+10
 LO BOUND QMUNI9 -0.000264779
 UP BOUND QMUNI9      1.1e+10
ENDATA
